6892.0 429151.0 
6900.0 425736.0 
6904.0 424988.0 
7032.0 413721.0 
7017.0 415424.0 
6888.0 429254.0 
6896.0 427206.0 
7193.0 412488.0 
7066.0 412980.0 
6937.0 416182.0 
7385.0 412247.0 
7033.0 413608.0 
7005.0 415444.0 
7027.0 414749.0 
7042.0 413570.0 
6921.0 418822.0 
6934.0 416841.0 
